TYPE : Vertex Cover
DIMENSION: 24
EDGE_DATA_SECTION:
0 9
0 11
1 5
2 9
2 22
3 15
5 16
6 16
7 16
8 12
8 15
9 14
9 20
11 22
12 16
12 21
18 20
19 21
-1
VERTEX_DEGREE:
2.0 1.0 2.0 1.0 0.0 2.0 1.0 1.0 2.0 4.0 0.0 2.0 3.0 0.0 1.0 2.0 4.0 0.0 1.0 1.0 2.0 2.0 2.0 0.0
VERTEX_COVER:
5 8 9 11 15 16 20 21 22
EOF
